p cnf 481 1248
c weights 1.0 1.0 2.718281828459045 0.36787944117144233 2.718281828459045 0.36787944117144233 1.0 1.0 2.718281828459045 0.36787944117144233 2.718281828459045 0.36787944117144233 1.0 1.0 2.718281828459045 0.36787944117144233 2.718281828459045 0.36787944117144233 1.0 1.0 2.718281828459045 0.36787944117144233 2.718281828459045 0.36787944117144233 1.0 1.0 2.718281828459045 0.36787944117144233 2.718281828459045 0.36787944117144233 1.0 1.0 2.718281828459045 0.36787944117144233 2.718281828459045 0.36787944117144233 1.0 1.0 2.718281828459045 0.36787944117144233 2.718281828459045 0.36787944117144233 1.0 1.0 2.718281828459045 0.36787944117144233 2.718281828459045 0.36787944117144233 1.0 1.0 2.718281828459045 0.36787944117144233 2.718281828459045 0.36787944117144233 1.0 1.0 2.718281828459045 0.36787944117144233 2.718281828459045 0.36787944117144233 1.0 1.0 2.718281828459045 0.36787944117144233 2.718281828459045 0.36787944117144233 1.0 1.0 2.718281828459045 0.36787944117144233 2.718281828459045 0.36787944117144233 1.0 1.0 2.718281828459045 0.36787944117144233 1.0 1.0 2.718281828459045 0.36787944117144233 2.718281828459045 0.36787944117144233 1.0 1.0 2.718281828459045 0.36787944117144233 2.718281828459045 0.36787944117144233 1.0 1.0 2.718281828459045 0.36787944117144233 2.718281828459045 0.36787944117144233 1.0 1.0 2.718281828459045 0.36787944117144233 2.718281828459045 0.36787944117144233 1.0 1.0 2.718281828459045 0.36787944117144233 2.718281828459045 0.36787944117144233 1.0 1.0 2.718281828459045 0.36787944117144233 2.718281828459045 0.36787944117144233 1.0 1.0 2.718281828459045 0.36787944117144233 2.718281828459045 0.36787944117144233 1.0 1.0 2.718281828459045 0.36787944117144233 2.718281828459045 0.36787944117144233 1.0 1.0 2.718281828459045 0.36787944117144233 2.718281828459045 0.36787944117144233 1.0 1.0 2.718281828459045 0.36787944117144233 2.718281828459045 0.36787944117144233 1.0 1.0 2.718281828459045 0.36787944117144233 2.718281828459045 0.36787944117144233 1.0 1.0 2.718281828459045 0.36787944117144233 2.718281828459045 0.36787944117144233 1.0 1.0 2.718281828459045 0.36787944117144233 1.0 1.0 2.718281828459045 0.36787944117144233 2.718281828459045 0.36787944117144233 1.0 1.0 2.718281828459045 0.36787944117144233 2.718281828459045 0.36787944117144233 1.0 1.0 2.718281828459045 0.36787944117144233 2.718281828459045 0.36787944117144233 1.0 1.0 2.718281828459045 0.36787944117144233 2.718281828459045 0.36787944117144233 1.0 1.0 2.718281828459045 0.36787944117144233 2.718281828459045 0.36787944117144233 1.0 1.0 2.718281828459045 0.36787944117144233 2.718281828459045 0.36787944117144233 1.0 1.0 2.718281828459045 0.36787944117144233 2.718281828459045 0.36787944117144233 1.0 1.0 2.718281828459045 0.36787944117144233 2.718281828459045 0.36787944117144233 1.0 1.0 2.718281828459045 0.36787944117144233 2.718281828459045 0.36787944117144233 1.0 1.0 2.718281828459045 0.36787944117144233 2.718281828459045 0.36787944117144233 1.0 1.0 2.718281828459045 0.36787944117144233 2.718281828459045 0.36787944117144233 1.0 1.0 2.718281828459045 0.36787944117144233 2.718281828459045 0.36787944117144233 1.0 1.0 2.718281828459045 0.36787944117144233 1.0 1.0 2.718281828459045 0.36787944117144233 2.718281828459045 0.36787944117144233 1.0 1.0 2.718281828459045 0.36787944117144233 2.718281828459045 0.36787944117144233 1.0 1.0 2.718281828459045 0.36787944117144233 2.718281828459045 0.36787944117144233 1.0 1.0 2.718281828459045 0.36787944117144233 2.718281828459045 0.36787944117144233 1.0 1.0 2.718281828459045 0.36787944117144233 2.718281828459045 0.36787944117144233 1.0 1.0 2.718281828459045 0.36787944117144233 2.718281828459045 0.36787944117144233 1.0 1.0 2.718281828459045 0.36787944117144233 2.718281828459045 0.36787944117144233 1.0 1.0 2.718281828459045 0.36787944117144233 2.718281828459045 0.36787944117144233 1.0 1.0 2.718281828459045 0.36787944117144233 2.718281828459045 0.36787944117144233 1.0 1.0 2.718281828459045 0.36787944117144233 2.718281828459045 0.36787944117144233 1.0 1.0 2.718281828459045 0.36787944117144233 2.718281828459045 0.36787944117144233 1.0 1.0 2.718281828459045 0.36787944117144233 2.718281828459045 0.36787944117144233 1.0 1.0 2.718281828459045 0.36787944117144233 1.0 1.0 2.718281828459045 0.36787944117144233 2.718281828459045 0.36787944117144233 1.0 1.0 2.718281828459045 0.36787944117144233 2.718281828459045 0.36787944117144233 1.0 1.0 2.718281828459045 0.36787944117144233 2.718281828459045 0.36787944117144233 1.0 1.0 2.718281828459045 0.36787944117144233 2.718281828459045 0.36787944117144233 1.0 1.0 2.718281828459045 0.36787944117144233 2.718281828459045 0.36787944117144233 1.0 1.0 2.718281828459045 0.36787944117144233 2.718281828459045 0.36787944117144233 1.0 1.0 2.718281828459045 0.36787944117144233 2.718281828459045 0.36787944117144233 1.0 1.0 2.718281828459045 0.36787944117144233 2.718281828459045 0.36787944117144233 1.0 1.0 2.718281828459045 0.36787944117144233 2.718281828459045 0.36787944117144233 1.0 1.0 2.718281828459045 0.36787944117144233 2.718281828459045 0.36787944117144233 1.0 1.0 2.718281828459045 0.36787944117144233 2.718281828459045 0.36787944117144233 1.0 1.0 2.718281828459045 0.36787944117144233 2.718281828459045 0.36787944117144233 1.0 1.0 2.718281828459045 0.36787944117144233 1.0 1.0 2.718281828459045 0.36787944117144233 2.718281828459045 0.36787944117144233 1.0 1.0 2.718281828459045 0.36787944117144233 2.718281828459045 0.36787944117144233 1.0 1.0 2.718281828459045 0.36787944117144233 2.718281828459045 0.36787944117144233 1.0 1.0 2.718281828459045 0.36787944117144233 2.718281828459045 0.36787944117144233 1.0 1.0 2.718281828459045 0.36787944117144233 2.718281828459045 0.36787944117144233 1.0 1.0 2.718281828459045 0.36787944117144233 2.718281828459045 0.36787944117144233 1.0 1.0 2.718281828459045 0.36787944117144233 2.718281828459045 0.36787944117144233 1.0 1.0 2.718281828459045 0.36787944117144233 2.718281828459045 0.36787944117144233 1.0 1.0 2.718281828459045 0.36787944117144233 2.718281828459045 0.36787944117144233 1.0 1.0 2.718281828459045 0.36787944117144233 2.718281828459045 0.36787944117144233 1.0 1.0 2.718281828459045 0.36787944117144233 2.718281828459045 0.36787944117144233 1.0 1.0 2.718281828459045 0.36787944117144233 2.718281828459045 0.36787944117144233 1.0 1.0 2.718281828459045 0.36787944117144233 1.0 1.0 2.718281828459045 0.36787944117144233 2.718281828459045 0.36787944117144233 1.0 1.0 2.718281828459045 0.36787944117144233 2.718281828459045 0.36787944117144233 1.0 1.0 2.718281828459045 0.36787944117144233 2.718281828459045 0.36787944117144233 1.0 1.0 2.718281828459045 0.36787944117144233 2.718281828459045 0.36787944117144233 1.0 1.0 2.718281828459045 0.36787944117144233 2.718281828459045 0.36787944117144233 1.0 1.0 2.718281828459045 0.36787944117144233 2.718281828459045 0.36787944117144233 1.0 1.0 2.718281828459045 0.36787944117144233 2.718281828459045 0.36787944117144233 1.0 1.0 2.718281828459045 0.36787944117144233 2.718281828459045 0.36787944117144233 1.0 1.0 2.718281828459045 0.36787944117144233 2.718281828459045 0.36787944117144233 1.0 1.0 2.718281828459045 0.36787944117144233 2.718281828459045 0.36787944117144233 1.0 1.0 2.718281828459045 0.36787944117144233 2.718281828459045 0.36787944117144233 1.0 1.0 2.718281828459045 0.36787944117144233 2.718281828459045 0.36787944117144233 1.0 1.0 2.718281828459045 0.36787944117144233 1.0 1.0 2.718281828459045 0.36787944117144233 2.718281828459045 0.36787944117144233 1.0 1.0 2.718281828459045 0.36787944117144233 2.718281828459045 0.36787944117144233 1.0 1.0 2.718281828459045 0.36787944117144233 2.718281828459045 0.36787944117144233 1.0 1.0 2.718281828459045 0.36787944117144233 2.718281828459045 0.36787944117144233 1.0 1.0 2.718281828459045 0.36787944117144233 2.718281828459045 0.36787944117144233 1.0 1.0 2.718281828459045 0.36787944117144233 2.718281828459045 0.36787944117144233 1.0 1.0 2.718281828459045 0.36787944117144233 2.718281828459045 0.36787944117144233 1.0 1.0 2.718281828459045 0.36787944117144233 2.718281828459045 0.36787944117144233 1.0 1.0 2.718281828459045 0.36787944117144233 2.718281828459045 0.36787944117144233 1.0 1.0 2.718281828459045 0.36787944117144233 2.718281828459045 0.36787944117144233 1.0 1.0 2.718281828459045 0.36787944117144233 2.718281828459045 0.36787944117144233 1.0 1.0 2.718281828459045 0.36787944117144233 2.718281828459045 0.36787944117144233 1.0 1.0 2.718281828459045 0.36787944117144233 1.0 1.0 2.718281828459045 0.36787944117144233 2.718281828459045 0.36787944117144233 1.0 1.0 2.718281828459045 0.36787944117144233 2.718281828459045 0.36787944117144233 1.0 1.0 2.718281828459045 0.36787944117144233 2.718281828459045 0.36787944117144233 1.0 1.0 2.718281828459045 0.36787944117144233 2.718281828459045 0.36787944117144233 1.0 1.0 2.718281828459045 0.36787944117144233 2.718281828459045 0.36787944117144233 1.0 1.0 2.718281828459045 0.36787944117144233 2.718281828459045 0.36787944117144233 1.0 1.0 2.718281828459045 0.36787944117144233 2.718281828459045 0.36787944117144233 1.0 1.0 2.718281828459045 0.36787944117144233 2.718281828459045 0.36787944117144233 1.0 1.0 2.718281828459045 0.36787944117144233 2.718281828459045 0.36787944117144233 1.0 1.0 2.718281828459045 0.36787944117144233 2.718281828459045 0.36787944117144233 1.0 1.0 2.718281828459045 0.36787944117144233 2.718281828459045 0.36787944117144233 1.0 1.0 2.718281828459045 0.36787944117144233 2.718281828459045 0.36787944117144233 1.0 1.0 2.718281828459045 0.36787944117144233 1.0 1.0 2.718281828459045 0.36787944117144233 2.718281828459045 0.36787944117144233 1.0 1.0 2.718281828459045 0.36787944117144233 2.718281828459045 0.36787944117144233 1.0 1.0 2.718281828459045 0.36787944117144233 2.718281828459045 0.36787944117144233 1.0 1.0 2.718281828459045 0.36787944117144233 2.718281828459045 0.36787944117144233 1.0 1.0 2.718281828459045 0.36787944117144233 2.718281828459045 0.36787944117144233 1.0 1.0 2.718281828459045 0.36787944117144233 2.718281828459045 0.36787944117144233 1.0 1.0 2.718281828459045 0.36787944117144233 2.718281828459045 0.36787944117144233 1.0 1.0 2.718281828459045 0.36787944117144233 2.718281828459045 0.36787944117144233 1.0 1.0 2.718281828459045 0.36787944117144233 2.718281828459045 0.36787944117144233 1.0 1.0 2.718281828459045 0.36787944117144233 2.718281828459045 0.36787944117144233 1.0 1.0 2.718281828459045 0.36787944117144233 2.718281828459045 0.36787944117144233 1.0 1.0 2.718281828459045 0.36787944117144233 2.718281828459045 0.36787944117144233 1.0 1.0 2.718281828459045 0.36787944117144233 1.0 1.0 2.718281828459045 0.36787944117144233 2.718281828459045 0.36787944117144233 1.0 1.0 2.718281828459045 0.36787944117144233 2.718281828459045 0.36787944117144233 1.0 1.0 2.718281828459045 0.36787944117144233 2.718281828459045 0.36787944117144233 1.0 1.0 2.718281828459045 0.36787944117144233 2.718281828459045 0.36787944117144233 1.0 1.0 2.718281828459045 0.36787944117144233 2.718281828459045 0.36787944117144233 1.0 1.0 2.718281828459045 0.36787944117144233 2.718281828459045 0.36787944117144233 1.0 1.0 2.718281828459045 0.36787944117144233 2.718281828459045 0.36787944117144233 1.0 1.0 2.718281828459045 0.36787944117144233 2.718281828459045 0.36787944117144233 1.0 1.0 2.718281828459045 0.36787944117144233 2.718281828459045 0.36787944117144233 1.0 1.0 2.718281828459045 0.36787944117144233 2.718281828459045 0.36787944117144233 1.0 1.0 2.718281828459045 0.36787944117144233 2.718281828459045 0.36787944117144233 1.0 1.0 2.718281828459045 0.36787944117144233 2.718281828459045 0.36787944117144233 1.0 1.0 2.718281828459045 0.36787944117144233 1.0 1.0 2.718281828459045 0.36787944117144233 2.718281828459045 0.36787944117144233 1.0 1.0 2.718281828459045 0.36787944117144233 2.718281828459045 0.36787944117144233 1.0 1.0 2.718281828459045 0.36787944117144233 2.718281828459045 0.36787944117144233 1.0 1.0 2.718281828459045 0.36787944117144233 2.718281828459045 0.36787944117144233 1.0 1.0 2.718281828459045 0.36787944117144233 2.718281828459045 0.36787944117144233 1.0 1.0 2.718281828459045 0.36787944117144233 2.718281828459045 0.36787944117144233 1.0 1.0 2.718281828459045 0.36787944117144233 2.718281828459045 0.36787944117144233 1.0 1.0 2.718281828459045 0.36787944117144233 2.718281828459045 0.36787944117144233 1.0 1.0 2.718281828459045 0.36787944117144233 2.718281828459045 0.36787944117144233 1.0 1.0 2.718281828459045 0.36787944117144233 2.718281828459045 0.36787944117144233 1.0 1.0 2.718281828459045 0.36787944117144233 2.718281828459045 0.36787944117144233 1.0 1.0 2.718281828459045 0.36787944117144233 2.718281828459045 0.36787944117144233 1.0 1.0 2.718281828459045 0.36787944117144233 1.0 1.0 2.718281828459045 0.36787944117144233 1.0 1.0 2.718281828459045 0.36787944117144233 1.0 1.0 2.718281828459045 0.36787944117144233 1.0 1.0 2.718281828459045 0.36787944117144233 1.0 1.0 2.718281828459045 0.36787944117144233 1.0 1.0 2.718281828459045 0.36787944117144233 1.0 1.0 2.718281828459045 0.36787944117144233 1.0 1.0 2.718281828459045 0.36787944117144233 1.0 1.0 2.718281828459045 0.36787944117144233 1.0 1.0 2.718281828459045 0.36787944117144233 1.0 1.0 2.718281828459045 0.36787944117144233 1.0 1.0 2.718281828459045 0.36787944117144233 1.0 1.0
2 1 4 0
2 -1 -4 0
-2 1 -4 0
-2 -1 4 0
3 1 39 0
3 -1 -39 0
-3 1 -39 0
-3 -1 39 0
5 4 7 0
5 -4 -7 0
-5 4 -7 0
-5 -4 7 0
6 4 42 0
6 -4 -42 0
-6 4 -42 0
-6 -4 42 0
8 7 10 0
8 -7 -10 0
-8 7 -10 0
-8 -7 10 0
9 7 45 0
9 -7 -45 0
-9 7 -45 0
-9 -7 45 0
11 10 13 0
11 -10 -13 0
-11 10 -13 0
-11 -10 13 0
12 10 48 0
12 -10 -48 0
-12 10 -48 0
-12 -10 48 0
14 13 16 0
14 -13 -16 0
-14 13 -16 0
-14 -13 16 0
15 13 51 0
15 -13 -51 0
-15 13 -51 0
-15 -13 51 0
17 16 19 0
17 -16 -19 0
-17 16 -19 0
-17 -16 19 0
18 16 54 0
18 -16 -54 0
-18 16 -54 0
-18 -16 54 0
20 19 22 0
20 -19 -22 0
-20 19 -22 0
-20 -19 22 0
21 19 57 0
21 -19 -57 0
-21 19 -57 0
-21 -19 57 0
23 22 25 0
23 -22 -25 0
-23 22 -25 0
-23 -22 25 0
24 22 60 0
24 -22 -60 0
-24 22 -60 0
-24 -22 60 0
26 25 28 0
26 -25 -28 0
-26 25 -28 0
-26 -25 28 0
27 25 63 0
27 -25 -63 0
-27 25 -63 0
-27 -25 63 0
29 28 31 0
29 -28 -31 0
-29 28 -31 0
-29 -28 31 0
30 28 66 0
30 -28 -66 0
-30 28 -66 0
-30 -28 66 0
32 31 34 0
32 -31 -34 0
-32 31 -34 0
-32 -31 34 0
33 31 69 0
33 -31 -69 0
-33 31 -69 0
-33 -31 69 0
35 34 37 0
35 -34 -37 0
-35 34 -37 0
-35 -34 37 0
36 34 72 0
36 -34 -72 0
-36 34 -72 0
-36 -34 72 0
38 37 75 0
38 -37 -75 0
-38 37 -75 0
-38 -37 75 0
40 39 42 0
40 -39 -42 0
-40 39 -42 0
-40 -39 42 0
41 39 77 0
41 -39 -77 0
-41 39 -77 0
-41 -39 77 0
43 42 45 0
43 -42 -45 0
-43 42 -45 0
-43 -42 45 0
44 42 80 0
44 -42 -80 0
-44 42 -80 0
-44 -42 80 0
46 45 48 0
46 -45 -48 0
-46 45 -48 0
-46 -45 48 0
47 45 83 0
47 -45 -83 0
-47 45 -83 0
-47 -45 83 0
49 48 51 0
49 -48 -51 0
-49 48 -51 0
-49 -48 51 0
50 48 86 0
50 -48 -86 0
-50 48 -86 0
-50 -48 86 0
52 51 54 0
52 -51 -54 0
-52 51 -54 0
-52 -51 54 0
53 51 89 0
53 -51 -89 0
-53 51 -89 0
-53 -51 89 0
55 54 57 0
55 -54 -57 0
-55 54 -57 0
-55 -54 57 0
56 54 92 0
56 -54 -92 0
-56 54 -92 0
-56 -54 92 0
58 57 60 0
58 -57 -60 0
-58 57 -60 0
-58 -57 60 0
59 57 95 0
59 -57 -95 0
-59 57 -95 0
-59 -57 95 0
61 60 63 0
61 -60 -63 0
-61 60 -63 0
-61 -60 63 0
62 60 98 0
62 -60 -98 0
-62 60 -98 0
-62 -60 98 0
64 63 66 0
64 -63 -66 0
-64 63 -66 0
-64 -63 66 0
65 63 101 0
65 -63 -101 0
-65 63 -101 0
-65 -63 101 0
67 66 69 0
67 -66 -69 0
-67 66 -69 0
-67 -66 69 0
68 66 104 0
68 -66 -104 0
-68 66 -104 0
-68 -66 104 0
70 69 72 0
70 -69 -72 0
-70 69 -72 0
-70 -69 72 0
71 69 107 0
71 -69 -107 0
-71 69 -107 0
-71 -69 107 0
73 72 75 0
73 -72 -75 0
-73 72 -75 0
-73 -72 75 0
74 72 110 0
74 -72 -110 0
-74 72 -110 0
-74 -72 110 0
76 75 113 0
76 -75 -113 0
-76 75 -113 0
-76 -75 113 0
78 77 80 0
78 -77 -80 0
-78 77 -80 0
-78 -77 80 0
79 77 115 0
79 -77 -115 0
-79 77 -115 0
-79 -77 115 0
81 80 83 0
81 -80 -83 0
-81 80 -83 0
-81 -80 83 0
82 80 118 0
82 -80 -118 0
-82 80 -118 0
-82 -80 118 0
84 83 86 0
84 -83 -86 0
-84 83 -86 0
-84 -83 86 0
85 83 121 0
85 -83 -121 0
-85 83 -121 0
-85 -83 121 0
87 86 89 0
87 -86 -89 0
-87 86 -89 0
-87 -86 89 0
88 86 124 0
88 -86 -124 0
-88 86 -124 0
-88 -86 124 0
90 89 92 0
90 -89 -92 0
-90 89 -92 0
-90 -89 92 0
91 89 127 0
91 -89 -127 0
-91 89 -127 0
-91 -89 127 0
93 92 95 0
93 -92 -95 0
-93 92 -95 0
-93 -92 95 0
94 92 130 0
94 -92 -130 0
-94 92 -130 0
-94 -92 130 0
96 95 98 0
96 -95 -98 0
-96 95 -98 0
-96 -95 98 0
97 95 133 0
97 -95 -133 0
-97 95 -133 0
-97 -95 133 0
99 98 101 0
99 -98 -101 0
-99 98 -101 0
-99 -98 101 0
100 98 136 0
100 -98 -136 0
-100 98 -136 0
-100 -98 136 0
102 101 104 0
102 -101 -104 0
-102 101 -104 0
-102 -101 104 0
103 101 139 0
103 -101 -139 0
-103 101 -139 0
-103 -101 139 0
105 104 107 0
105 -104 -107 0
-105 104 -107 0
-105 -104 107 0
106 104 142 0
106 -104 -142 0
-106 104 -142 0
-106 -104 142 0
108 107 110 0
108 -107 -110 0
-108 107 -110 0
-108 -107 110 0
109 107 145 0
109 -107 -145 0
-109 107 -145 0
-109 -107 145 0
111 110 113 0
111 -110 -113 0
-111 110 -113 0
-111 -110 113 0
112 110 148 0
112 -110 -148 0
-112 110 -148 0
-112 -110 148 0
114 113 151 0
114 -113 -151 0
-114 113 -151 0
-114 -113 151 0
116 115 118 0
116 -115 -118 0
-116 115 -118 0
-116 -115 118 0
117 115 153 0
117 -115 -153 0
-117 115 -153 0
-117 -115 153 0
119 118 121 0
119 -118 -121 0
-119 118 -121 0
-119 -118 121 0
120 118 156 0
120 -118 -156 0
-120 118 -156 0
-120 -118 156 0
122 121 124 0
122 -121 -124 0
-122 121 -124 0
-122 -121 124 0
123 121 159 0
123 -121 -159 0
-123 121 -159 0
-123 -121 159 0
125 124 127 0
125 -124 -127 0
-125 124 -127 0
-125 -124 127 0
126 124 162 0
126 -124 -162 0
-126 124 -162 0
-126 -124 162 0
128 127 130 0
128 -127 -130 0
-128 127 -130 0
-128 -127 130 0
129 127 165 0
129 -127 -165 0
-129 127 -165 0
-129 -127 165 0
131 130 133 0
131 -130 -133 0
-131 130 -133 0
-131 -130 133 0
132 130 168 0
132 -130 -168 0
-132 130 -168 0
-132 -130 168 0
134 133 136 0
134 -133 -136 0
-134 133 -136 0
-134 -133 136 0
135 133 171 0
135 -133 -171 0
-135 133 -171 0
-135 -133 171 0
137 136 139 0
137 -136 -139 0
-137 136 -139 0
-137 -136 139 0
138 136 174 0
138 -136 -174 0
-138 136 -174 0
-138 -136 174 0
140 139 142 0
140 -139 -142 0
-140 139 -142 0
-140 -139 142 0
141 139 177 0
141 -139 -177 0
-141 139 -177 0
-141 -139 177 0
143 142 145 0
143 -142 -145 0
-143 142 -145 0
-143 -142 145 0
144 142 180 0
144 -142 -180 0
-144 142 -180 0
-144 -142 180 0
146 145 148 0
146 -145 -148 0
-146 145 -148 0
-146 -145 148 0
147 145 183 0
147 -145 -183 0
-147 145 -183 0
-147 -145 183 0
149 148 151 0
149 -148 -151 0
-149 148 -151 0
-149 -148 151 0
150 148 186 0
150 -148 -186 0
-150 148 -186 0
-150 -148 186 0
152 151 189 0
152 -151 -189 0
-152 151 -189 0
-152 -151 189 0
154 153 156 0
154 -153 -156 0
-154 153 -156 0
-154 -153 156 0
155 153 191 0
155 -153 -191 0
-155 153 -191 0
-155 -153 191 0
157 156 159 0
157 -156 -159 0
-157 156 -159 0
-157 -156 159 0
158 156 194 0
158 -156 -194 0
-158 156 -194 0
-158 -156 194 0
160 159 162 0
160 -159 -162 0
-160 159 -162 0
-160 -159 162 0
161 159 197 0
161 -159 -197 0
-161 159 -197 0
-161 -159 197 0
163 162 165 0
163 -162 -165 0
-163 162 -165 0
-163 -162 165 0
164 162 200 0
164 -162 -200 0
-164 162 -200 0
-164 -162 200 0
166 165 168 0
166 -165 -168 0
-166 165 -168 0
-166 -165 168 0
167 165 203 0
167 -165 -203 0
-167 165 -203 0
-167 -165 203 0
169 168 171 0
169 -168 -171 0
-169 168 -171 0
-169 -168 171 0
170 168 206 0
170 -168 -206 0
-170 168 -206 0
-170 -168 206 0
172 171 174 0
172 -171 -174 0
-172 171 -174 0
-172 -171 174 0
173 171 209 0
173 -171 -209 0
-173 171 -209 0
-173 -171 209 0
175 174 177 0
175 -174 -177 0
-175 174 -177 0
-175 -174 177 0
176 174 212 0
176 -174 -212 0
-176 174 -212 0
-176 -174 212 0
178 177 180 0
178 -177 -180 0
-178 177 -180 0
-178 -177 180 0
179 177 215 0
179 -177 -215 0
-179 177 -215 0
-179 -177 215 0
181 180 183 0
181 -180 -183 0
-181 180 -183 0
-181 -180 183 0
182 180 218 0
182 -180 -218 0
-182 180 -218 0
-182 -180 218 0
184 183 186 0
184 -183 -186 0
-184 183 -186 0
-184 -183 186 0
185 183 221 0
185 -183 -221 0
-185 183 -221 0
-185 -183 221 0
187 186 189 0
187 -186 -189 0
-187 186 -189 0
-187 -186 189 0
188 186 224 0
188 -186 -224 0
-188 186 -224 0
-188 -186 224 0
190 189 227 0
190 -189 -227 0
-190 189 -227 0
-190 -189 227 0
192 191 194 0
192 -191 -194 0
-192 191 -194 0
-192 -191 194 0
193 191 229 0
193 -191 -229 0
-193 191 -229 0
-193 -191 229 0
195 194 197 0
195 -194 -197 0
-195 194 -197 0
-195 -194 197 0
196 194 232 0
196 -194 -232 0
-196 194 -232 0
-196 -194 232 0
198 197 200 0
198 -197 -200 0
-198 197 -200 0
-198 -197 200 0
199 197 235 0
199 -197 -235 0
-199 197 -235 0
-199 -197 235 0
201 200 203 0
201 -200 -203 0
-201 200 -203 0
-201 -200 203 0
202 200 238 0
202 -200 -238 0
-202 200 -238 0
-202 -200 238 0
204 203 206 0
204 -203 -206 0
-204 203 -206 0
-204 -203 206 0
205 203 241 0
205 -203 -241 0
-205 203 -241 0
-205 -203 241 0
207 206 209 0
207 -206 -209 0
-207 206 -209 0
-207 -206 209 0
208 206 244 0
208 -206 -244 0
-208 206 -244 0
-208 -206 244 0
210 209 212 0
210 -209 -212 0
-210 209 -212 0
-210 -209 212 0
211 209 247 0
211 -209 -247 0
-211 209 -247 0
-211 -209 247 0
213 212 215 0
213 -212 -215 0
-213 212 -215 0
-213 -212 215 0
214 212 250 0
214 -212 -250 0
-214 212 -250 0
-214 -212 250 0
216 215 218 0
216 -215 -218 0
-216 215 -218 0
-216 -215 218 0
217 215 253 0
217 -215 -253 0
-217 215 -253 0
-217 -215 253 0
219 218 221 0
219 -218 -221 0
-219 218 -221 0
-219 -218 221 0
220 218 256 0
220 -218 -256 0
-220 218 -256 0
-220 -218 256 0
222 221 224 0
222 -221 -224 0
-222 221 -224 0
-222 -221 224 0
223 221 259 0
223 -221 -259 0
-223 221 -259 0
-223 -221 259 0
225 224 227 0
225 -224 -227 0
-225 224 -227 0
-225 -224 227 0
226 224 262 0
226 -224 -262 0
-226 224 -262 0
-226 -224 262 0
228 227 265 0
228 -227 -265 0
-228 227 -265 0
-228 -227 265 0
230 229 232 0
230 -229 -232 0
-230 229 -232 0
-230 -229 232 0
231 229 267 0
231 -229 -267 0
-231 229 -267 0
-231 -229 267 0
233 232 235 0
233 -232 -235 0
-233 232 -235 0
-233 -232 235 0
234 232 270 0
234 -232 -270 0
-234 232 -270 0
-234 -232 270 0
236 235 238 0
236 -235 -238 0
-236 235 -238 0
-236 -235 238 0
237 235 273 0
237 -235 -273 0
-237 235 -273 0
-237 -235 273 0
239 238 241 0
239 -238 -241 0
-239 238 -241 0
-239 -238 241 0
240 238 276 0
240 -238 -276 0
-240 238 -276 0
-240 -238 276 0
242 241 244 0
242 -241 -244 0
-242 241 -244 0
-242 -241 244 0
243 241 279 0
243 -241 -279 0
-243 241 -279 0
-243 -241 279 0
245 244 247 0
245 -244 -247 0
-245 244 -247 0
-245 -244 247 0
246 244 282 0
246 -244 -282 0
-246 244 -282 0
-246 -244 282 0
248 247 250 0
248 -247 -250 0
-248 247 -250 0
-248 -247 250 0
249 247 285 0
249 -247 -285 0
-249 247 -285 0
-249 -247 285 0
251 250 253 0
251 -250 -253 0
-251 250 -253 0
-251 -250 253 0
252 250 288 0
252 -250 -288 0
-252 250 -288 0
-252 -250 288 0
254 253 256 0
254 -253 -256 0
-254 253 -256 0
-254 -253 256 0
255 253 291 0
255 -253 -291 0
-255 253 -291 0
-255 -253 291 0
257 256 259 0
257 -256 -259 0
-257 256 -259 0
-257 -256 259 0
258 256 294 0
258 -256 -294 0
-258 256 -294 0
-258 -256 294 0
260 259 262 0
260 -259 -262 0
-260 259 -262 0
-260 -259 262 0
261 259 297 0
261 -259 -297 0
-261 259 -297 0
-261 -259 297 0
263 262 265 0
263 -262 -265 0
-263 262 -265 0
-263 -262 265 0
264 262 300 0
264 -262 -300 0
-264 262 -300 0
-264 -262 300 0
266 265 303 0
266 -265 -303 0
-266 265 -303 0
-266 -265 303 0
268 267 270 0
268 -267 -270 0
-268 267 -270 0
-268 -267 270 0
269 267 305 0
269 -267 -305 0
-269 267 -305 0
-269 -267 305 0
271 270 273 0
271 -270 -273 0
-271 270 -273 0
-271 -270 273 0
272 270 308 0
272 -270 -308 0
-272 270 -308 0
-272 -270 308 0
274 273 276 0
274 -273 -276 0
-274 273 -276 0
-274 -273 276 0
275 273 311 0
275 -273 -311 0
-275 273 -311 0
-275 -273 311 0
277 276 279 0
277 -276 -279 0
-277 276 -279 0
-277 -276 279 0
278 276 314 0
278 -276 -314 0
-278 276 -314 0
-278 -276 314 0
280 279 282 0
280 -279 -282 0
-280 279 -282 0
-280 -279 282 0
281 279 317 0
281 -279 -317 0
-281 279 -317 0
-281 -279 317 0
283 282 285 0
283 -282 -285 0
-283 282 -285 0
-283 -282 285 0
284 282 320 0
284 -282 -320 0
-284 282 -320 0
-284 -282 320 0
286 285 288 0
286 -285 -288 0
-286 285 -288 0
-286 -285 288 0
287 285 323 0
287 -285 -323 0
-287 285 -323 0
-287 -285 323 0
289 288 291 0
289 -288 -291 0
-289 288 -291 0
-289 -288 291 0
290 288 326 0
290 -288 -326 0
-290 288 -326 0
-290 -288 326 0
292 291 294 0
292 -291 -294 0
-292 291 -294 0
-292 -291 294 0
293 291 329 0
293 -291 -329 0
-293 291 -329 0
-293 -291 329 0
295 294 297 0
295 -294 -297 0
-295 294 -297 0
-295 -294 297 0
296 294 332 0
296 -294 -332 0
-296 294 -332 0
-296 -294 332 0
298 297 300 0
298 -297 -300 0
-298 297 -300 0
-298 -297 300 0
299 297 335 0
299 -297 -335 0
-299 297 -335 0
-299 -297 335 0
301 300 303 0
301 -300 -303 0
-301 300 -303 0
-301 -300 303 0
302 300 338 0
302 -300 -338 0
-302 300 -338 0
-302 -300 338 0
304 303 341 0
304 -303 -341 0
-304 303 -341 0
-304 -303 341 0
306 305 308 0
306 -305 -308 0
-306 305 -308 0
-306 -305 308 0
307 305 343 0
307 -305 -343 0
-307 305 -343 0
-307 -305 343 0
309 308 311 0
309 -308 -311 0
-309 308 -311 0
-309 -308 311 0
310 308 346 0
310 -308 -346 0
-310 308 -346 0
-310 -308 346 0
312 311 314 0
312 -311 -314 0
-312 311 -314 0
-312 -311 314 0
313 311 349 0
313 -311 -349 0
-313 311 -349 0
-313 -311 349 0
315 314 317 0
315 -314 -317 0
-315 314 -317 0
-315 -314 317 0
316 314 352 0
316 -314 -352 0
-316 314 -352 0
-316 -314 352 0
318 317 320 0
318 -317 -320 0
-318 317 -320 0
-318 -317 320 0
319 317 355 0
319 -317 -355 0
-319 317 -355 0
-319 -317 355 0
321 320 323 0
321 -320 -323 0
-321 320 -323 0
-321 -320 323 0
322 320 358 0
322 -320 -358 0
-322 320 -358 0
-322 -320 358 0
324 323 326 0
324 -323 -326 0
-324 323 -326 0
-324 -323 326 0
325 323 361 0
325 -323 -361 0
-325 323 -361 0
-325 -323 361 0
327 326 329 0
327 -326 -329 0
-327 326 -329 0
-327 -326 329 0
328 326 364 0
328 -326 -364 0
-328 326 -364 0
-328 -326 364 0
330 329 332 0
330 -329 -332 0
-330 329 -332 0
-330 -329 332 0
331 329 367 0
331 -329 -367 0
-331 329 -367 0
-331 -329 367 0
333 332 335 0
333 -332 -335 0
-333 332 -335 0
-333 -332 335 0
334 332 370 0
334 -332 -370 0
-334 332 -370 0
-334 -332 370 0
336 335 338 0
336 -335 -338 0
-336 335 -338 0
-336 -335 338 0
337 335 373 0
337 -335 -373 0
-337 335 -373 0
-337 -335 373 0
339 338 341 0
339 -338 -341 0
-339 338 -341 0
-339 -338 341 0
340 338 376 0
340 -338 -376 0
-340 338 -376 0
-340 -338 376 0
342 341 379 0
342 -341 -379 0
-342 341 -379 0
-342 -341 379 0
344 343 346 0
344 -343 -346 0
-344 343 -346 0
-344 -343 346 0
345 343 381 0
345 -343 -381 0
-345 343 -381 0
-345 -343 381 0
347 346 349 0
347 -346 -349 0
-347 346 -349 0
-347 -346 349 0
348 346 384 0
348 -346 -384 0
-348 346 -384 0
-348 -346 384 0
350 349 352 0
350 -349 -352 0
-350 349 -352 0
-350 -349 352 0
351 349 387 0
351 -349 -387 0
-351 349 -387 0
-351 -349 387 0
353 352 355 0
353 -352 -355 0
-353 352 -355 0
-353 -352 355 0
354 352 390 0
354 -352 -390 0
-354 352 -390 0
-354 -352 390 0
356 355 358 0
356 -355 -358 0
-356 355 -358 0
-356 -355 358 0
357 355 393 0
357 -355 -393 0
-357 355 -393 0
-357 -355 393 0
359 358 361 0
359 -358 -361 0
-359 358 -361 0
-359 -358 361 0
360 358 396 0
360 -358 -396 0
-360 358 -396 0
-360 -358 396 0
362 361 364 0
362 -361 -364 0
-362 361 -364 0
-362 -361 364 0
363 361 399 0
363 -361 -399 0
-363 361 -399 0
-363 -361 399 0
365 364 367 0
365 -364 -367 0
-365 364 -367 0
-365 -364 367 0
366 364 402 0
366 -364 -402 0
-366 364 -402 0
-366 -364 402 0
368 367 370 0
368 -367 -370 0
-368 367 -370 0
-368 -367 370 0
369 367 405 0
369 -367 -405 0
-369 367 -405 0
-369 -367 405 0
371 370 373 0
371 -370 -373 0
-371 370 -373 0
-371 -370 373 0
372 370 408 0
372 -370 -408 0
-372 370 -408 0
-372 -370 408 0
374 373 376 0
374 -373 -376 0
-374 373 -376 0
-374 -373 376 0
375 373 411 0
375 -373 -411 0
-375 373 -411 0
-375 -373 411 0
377 376 379 0
377 -376 -379 0
-377 376 -379 0
-377 -376 379 0
378 376 414 0
378 -376 -414 0
-378 376 -414 0
-378 -376 414 0
380 379 417 0
380 -379 -417 0
-380 379 -417 0
-380 -379 417 0
382 381 384 0
382 -381 -384 0
-382 381 -384 0
-382 -381 384 0
383 381 419 0
383 -381 -419 0
-383 381 -419 0
-383 -381 419 0
385 384 387 0
385 -384 -387 0
-385 384 -387 0
-385 -384 387 0
386 384 422 0
386 -384 -422 0
-386 384 -422 0
-386 -384 422 0
388 387 390 0
388 -387 -390 0
-388 387 -390 0
-388 -387 390 0
389 387 425 0
389 -387 -425 0
-389 387 -425 0
-389 -387 425 0
391 390 393 0
391 -390 -393 0
-391 390 -393 0
-391 -390 393 0
392 390 428 0
392 -390 -428 0
-392 390 -428 0
-392 -390 428 0
394 393 396 0
394 -393 -396 0
-394 393 -396 0
-394 -393 396 0
395 393 431 0
395 -393 -431 0
-395 393 -431 0
-395 -393 431 0
397 396 399 0
397 -396 -399 0
-397 396 -399 0
-397 -396 399 0
398 396 434 0
398 -396 -434 0
-398 396 -434 0
-398 -396 434 0
400 399 402 0
400 -399 -402 0
-400 399 -402 0
-400 -399 402 0
401 399 437 0
401 -399 -437 0
-401 399 -437 0
-401 -399 437 0
403 402 405 0
403 -402 -405 0
-403 402 -405 0
-403 -402 405 0
404 402 440 0
404 -402 -440 0
-404 402 -440 0
-404 -402 440 0
406 405 408 0
406 -405 -408 0
-406 405 -408 0
-406 -405 408 0
407 405 443 0
407 -405 -443 0
-407 405 -443 0
-407 -405 443 0
409 408 411 0
409 -408 -411 0
-409 408 -411 0
-409 -408 411 0
410 408 446 0
410 -408 -446 0
-410 408 -446 0
-410 -408 446 0
412 411 414 0
412 -411 -414 0
-412 411 -414 0
-412 -411 414 0
413 411 449 0
413 -411 -449 0
-413 411 -449 0
-413 -411 449 0
415 414 417 0
415 -414 -417 0
-415 414 -417 0
-415 -414 417 0
416 414 452 0
416 -414 -452 0
-416 414 -452 0
-416 -414 452 0
418 417 455 0
418 -417 -455 0
-418 417 -455 0
-418 -417 455 0
420 419 422 0
420 -419 -422 0
-420 419 -422 0
-420 -419 422 0
421 419 457 0
421 -419 -457 0
-421 419 -457 0
-421 -419 457 0
423 422 425 0
423 -422 -425 0
-423 422 -425 0
-423 -422 425 0
424 422 459 0
424 -422 -459 0
-424 422 -459 0
-424 -422 459 0
426 425 428 0
426 -425 -428 0
-426 425 -428 0
-426 -425 428 0
427 425 461 0
427 -425 -461 0
-427 425 -461 0
-427 -425 461 0
429 428 431 0
429 -428 -431 0
-429 428 -431 0
-429 -428 431 0
430 428 463 0
430 -428 -463 0
-430 428 -463 0
-430 -428 463 0
432 431 434 0
432 -431 -434 0
-432 431 -434 0
-432 -431 434 0
433 431 465 0
433 -431 -465 0
-433 431 -465 0
-433 -431 465 0
435 434 437 0
435 -434 -437 0
-435 434 -437 0
-435 -434 437 0
436 434 467 0
436 -434 -467 0
-436 434 -467 0
-436 -434 467 0
438 437 440 0
438 -437 -440 0
-438 437 -440 0
-438 -437 440 0
439 437 469 0
439 -437 -469 0
-439 437 -469 0
-439 -437 469 0
441 440 443 0
441 -440 -443 0
-441 440 -443 0
-441 -440 443 0
442 440 471 0
442 -440 -471 0
-442 440 -471 0
-442 -440 471 0
444 443 446 0
444 -443 -446 0
-444 443 -446 0
-444 -443 446 0
445 443 473 0
445 -443 -473 0
-445 443 -473 0
-445 -443 473 0
447 446 449 0
447 -446 -449 0
-447 446 -449 0
-447 -446 449 0
448 446 475 0
448 -446 -475 0
-448 446 -475 0
-448 -446 475 0
450 449 452 0
450 -449 -452 0
-450 449 -452 0
-450 -449 452 0
451 449 477 0
451 -449 -477 0
-451 449 -477 0
-451 -449 477 0
453 452 455 0
453 -452 -455 0
-453 452 -455 0
-453 -452 455 0
454 452 479 0
454 -452 -479 0
-454 452 -479 0
-454 -452 479 0
456 455 481 0
456 -455 -481 0
-456 455 -481 0
-456 -455 481 0
458 457 459 0
458 -457 -459 0
-458 457 -459 0
-458 -457 459 0
460 459 461 0
460 -459 -461 0
-460 459 -461 0
-460 -459 461 0
462 461 463 0
462 -461 -463 0
-462 461 -463 0
-462 -461 463 0
464 463 465 0
464 -463 -465 0
-464 463 -465 0
-464 -463 465 0
466 465 467 0
466 -465 -467 0
-466 465 -467 0
-466 -465 467 0
468 467 469 0
468 -467 -469 0
-468 467 -469 0
-468 -467 469 0
470 469 471 0
470 -469 -471 0
-470 469 -471 0
-470 -469 471 0
472 471 473 0
472 -471 -473 0
-472 471 -473 0
-472 -471 473 0
474 473 475 0
474 -473 -475 0
-474 473 -475 0
-474 -473 475 0
476 475 477 0
476 -475 -477 0
-476 475 -477 0
-476 -475 477 0
478 477 479 0
478 -477 -479 0
-478 477 -479 0
-478 -477 479 0
480 479 481 0
480 -479 -481 0
-480 479 -481 0
-480 -479 481 0
